; TODO try replacing this with int
(declare-datatype nat ((zero) (s (s_0 nat))))
(declare-datatype list (par (a) ((Nil) (Cons (Cons_0 a) (Cons_1 (list a))))))
(declare-fun plus (nat nat) nat)
(assert (forall ((x nat)) (= (plus zero x) x)))
(assert (forall ((x nat) (y nat)) (= (plus (s x) y) (s (plus x y)))))
(declare-fun count (par (a) (a (list a)) nat))
(assert (par (a) (forall ((x a)) (= (count a x (Nil a)) zero))))
(assert (par (a) (forall ((x a) (y a) (ys (list a))) (= (count a x (Cons a y ys)) (ite (= x y) (s (count a x ys)) (count a x ys))))))
(declare-fun less (par (a) (a a) Bool))
(declare-fun leq (par (a) (a a) Bool))
(assert (par (a) (forall ((x a) (y a)) (= (leq a x y) (or (= x y) (less a x y))))))
(declare-fun merge (par (a) ((list a) (list a)) (list a)))
(assert (par (a) (forall ((ys (list a))) (= (merge a (Nil a) ys) ys))))
(assert (par (a) (forall ((xs (list a))) (= (merge a xs (Nil a)) xs))))
(assert (par (a) (forall ((x a) (xs (list a)) (y a) (ys (list a))) (= (merge a (Cons a x xs) (Cons a y ys))
  (ite (leq a x y) (Cons a x (merge a xs (Cons a y ys))) (Cons a y (merge a (Cons a x xs) ys)))))))

; mset(merge(xs,ys)) = mset(xs) + mset(ys)
(assert-not (par (a) (forall ((xs (list a)) (ys (list a)) (x a)) (= (count a x (merge a xs ys)) (plus (count a x xs) (count a x ys))))))
